proyfinal/src/viki/013/andrea/andrea-localstore/experimentInOfficeAgust.take6/worker_5/57e84297-0f34-4c4e-a564-11e8d6b0225a.als.cnf.out
Reading from standard input... Use '--help' for help.
============================[ Problem Statistics ]=============================
|                                                                             |
|  Number of variables:         87638                                         |
|  Number of clauses:          161767                                         |
|  Parse time:                   0.03 s                                       |
|                                                                             |
============================[ Search Statistics ]==============================
| Conflicts |          ORIGINAL         |          LEARNT          | Progress |
|           |    Vars  Clauses Literals |    Limit  Clauses Lit/Cl |          |
===============================================================================
|       100 |   62368   105168   262714 |    38561      100     14 | 28.835 % |
|       250 |   62367   105124   262624 |    42417      248     40 | 28.836 % |
|       475 |   62367   105124   262624 |    46659      473     66 | 28.836 % |
|       812 |   62367   105124   262624 |    51325      810     61 | 28.836 % |
|      1318 |   62367   105124   262624 |    56458     1316     92 | 28.836 % |
|      2077 |   50999   105040   262431 |    62103     2063     86 | 41.807 % |
|      3216 |   50989    71266   178994 |    68314     3112     77 | 41.819 % |
|      4924 |   50862    70737   177681 |    75145     4801     67 | 41.964 % |
|      7486 |   50718    70154   176252 |    82660     7198     63 | 42.128 % |
|     11330 |   50402    68835   172977 |    90926    10320     57 | 42.488 % |
===============================================================================
restarts              : 62
conflicts             : 14745          (8945 /sec)
decisions             : 44310          (0.00 % random) (26880 /sec)
propagations          : 17315209       (10503895 /sec)
conflict literals     : 768563         (44.60 % deleted)
Memory used           : 30.84 MB
CPU time              : 1.64846 s

UNSATISFIABLE
